5 5
1 45 3 8 2 85 0 35 4 44
2 18 1 47 3 25 0 41 4 5
2 64 1 62 0 72 4 87 3 3
3 37 1 95 4 93 0 41 2 20
3 67 2 87 4 40 1 85 0 77
-1
0 1 2 3 5
0 3 5
0 1 2 5
0 1 2 3 5
0 2 3 4 5
-2
47 53 162 268
112 137
74 129 384
41 205 257 339
190 255 338 483

456 7
3 12 18 8 24
0 16 11 6 23
10 2 5 21 19
15 1 20 7 14
17 22 13 4 9
